
Gurobi 10.0.1 (linux64) logging started Mon Apr  7 10:49:36 2025

Set parameter LogFile to value "Results/OneScenarioExperiments/option3_without_equality_constraints_v2.log"
Set parameter TimeLimit to value 84600
Gurobi Optimizer version 10.0.1 build v10.0.1rc0 (linux64)

CPU model: AMD EPYC 9654 96-Core Processor, instruction set [SSE2|AVX|AVX2|AVX512]
Thread count: 192 physical cores, 192 logical processors, using up to 32 threads

Academic license 656792 - for non-commercial use only - registered to b.___@student.vu.nl
Optimize a model with 1703600 rows, 1948128 columns and 7223504 nonzeros
Model fingerprint: 0xe64cb05a
Coefficient statistics:
  Matrix range     [2e-01, 1e+00]
  Objective range  [6e-05, 5e+00]
  Bounds range     [0e+00, 0e+00]
  RHS range        [1e-02, 1e+03]
Presolve removed 1462602 rows and 1548265 columns
Presolve time: 4.36s
Presolved: 240998 rows, 399890 columns, 1511400 nonzeros

Concurrent LP optimizer: primal simplex, dual simplex, and barrier
Showing barrier log only...

Ordering time: 1.87s

Barrier statistics:
 AA' NZ     : 1.945e+06
 Factor NZ  : 2.160e+07 (roughly 240 MB of memory)
 Factor Ops : 1.926e+10 (less than 1 second per iteration)
 Threads    : 30

                  Objective                Residual
Iter       Primal          Dual         Primal    Dual     Compl     Time
   0  -2.33961081e+05  5.27704818e+07  7.82e+03 3.80e+01  1.71e+04     7s
   1  -5.78054008e+06  4.07098616e+07  1.98e+03 5.45e+00  3.77e+03     7s
   2  -5.31435487e+06  1.90749037e+07  4.95e+02 2.99e-01  7.56e+02     7s
   3  -1.72680377e+06  4.20612833e+06  8.16e+01 1.88e-02  1.30e+02     7s
   4  -3.65183347e+05  1.49757788e+06  1.43e+01 4.31e-03  3.04e+01     7s
   5  -1.19939282e+05  6.95836125e+05  3.93e+00 1.74e-03  1.14e+01     8s
   6  -3.13052845e+04  2.39710921e+05  1.20e+00 4.64e-04  3.48e+00     8s
   7   1.21984678e+03  6.65472790e+04  3.27e-01 7.21e-05  8.01e-01     8s
   8   1.10614872e+04  3.89125373e+04  1.49e-01 2.61e-05  3.35e-01     8s
   9   1.75707118e+04  2.94705884e+04  4.38e-02 1.16e-05  1.36e-01     8s
  10   1.94123568e+04  2.64408362e+04  1.96e-02 7.31e-06  7.86e-02     8s
  11   2.02436907e+04  2.39584837e+04  1.02e-02 3.76e-06  4.14e-02     8s
  12   2.06831796e+04  2.29408509e+04  6.04e-03 2.19e-06  2.51e-02     8s
  13   2.09880613e+04  2.23481432e+04  3.46e-03 1.28e-06  1.51e-02     8s
  14   2.11927919e+04  2.19216065e+04  1.92e-03 6.66e-07  8.11e-03     8s
  15   2.13382935e+04  2.17824073e+04  9.56e-04 4.44e-07  4.89e-03     8s
  16   2.13964280e+04  2.16583475e+04  6.12e-04 2.32e-07  2.90e-03     8s
  17   2.14165479e+04  2.16220866e+04  5.02e-04 1.68e-07  2.29e-03     9s
  18   2.14651032e+04  2.15895557e+04  2.51e-04 1.15e-07  1.37e-03     9s
  19   2.14722413e+04  2.15838920e+04  2.16e-04 1.06e-07  1.23e-03     9s
  20   2.14794321e+04  2.15660141e+04  1.81e-04 7.63e-08  9.56e-04     9s
  21   2.14975527e+04  2.15444452e+04  9.19e-05 4.11e-08  5.16e-04     9s
  22   2.15078332e+04  2.15344051e+04  4.46e-05 2.45e-08  2.91e-04     9s
  23   2.15109578e+04  2.15287258e+04  3.21e-05 1.54e-08  1.95e-04     9s
  24   2.15142114e+04  2.15259196e+04  1.71e-05 1.09e-08  1.28e-04     9s
  25   2.15167722e+04  2.15249822e+04  6.98e-06 9.49e-09  8.80e-05     9s
  26   2.15180390e+04  2.15230797e+04  2.44e-06 6.49e-09  5.35e-05     9s
  27   2.15189025e+04  2.15201620e+04  4.75e-07 1.56e-09  1.33e-05     9s
  28   2.15190775e+04  2.15195477e+04  2.00e-07 5.30e-10  4.99e-06     9s
  29   2.15191172e+04  2.15194368e+04  1.44e-07 3.47e-10  3.40e-06    10s
  30   2.15191562e+04  2.15193765e+04  9.09e-08 2.47e-10  2.34e-06    10s
  31   2.15192037e+04  2.15192577e+04  2.75e-08 4.54e-11  5.76e-07    10s
  32   2.15192132e+04  2.15192438e+04  1.65e-08 2.32e-11  3.27e-07    10s
  33   2.15192235e+04  2.15192316e+04  4.87e-09 4.42e-12  8.66e-08    10s
  34   2.15192271e+04  2.15192298e+04  6.74e-08 1.88e-12  2.86e-08    10s
  35   2.15192280e+04  2.15192286e+04  9.82e-08 2.17e-13  6.16e-09    10s
  36   2.15192284e+04  2.15192284e+04  4.80e-07 2.61e-13  5.89e-10    10s

Barrier solved model in 36 iterations and 10.23 seconds (10.79 work units)
Optimal objective 2.15192284e+04

Crossover log...

   37860 DPushes remaining with DInf 0.0000000e+00                10s
       0 DPushes remaining with DInf 0.0000000e+00                11s

   16875 PPushes remaining with PInf 1.1718052e-04                11s
       0 PPushes remaining with PInf 0.0000000e+00                11s

  Push phase complete: Pinf 0.0000000e+00, Dinf 4.2406250e-01     11s

Iteration    Objective       Primal Inf.    Dual Inf.      Time
   50206    2.1519228e+04   0.000000e+00   4.240625e-01     11s

Solved with barrier
Extra simplex iterations after uncrush: 3
   50711    2.1519228e+04   0.000000e+00   0.000000e+00     11s

Use crossover to convert LP symmetric solution to basic solution...
Crossover log...

    3489 DPushes remaining with DInf 0.0000000e+00                11s
       0 DPushes remaining with DInf 0.0000000e+00                11s

    5026 PPushes remaining with PInf 0.0000000e+00                11s
       0 PPushes remaining with PInf 0.0000000e+00                12s

  Push phase complete: Pinf 0.0000000e+00, Dinf 4.1119911e-12     12s

Iteration    Objective       Primal Inf.    Dual Inf.      Time
   69217    2.1519537e+04   0.000000e+00   3.180494e+05     16s
   75336    2.1519600e+04   0.000000e+00   1.447413e+05     21s
   79301    2.1519620e+04   0.000000e+00   5.063246e+05     27s
   82756    2.1519626e+04   0.000000e+00   3.775650e+05     31s
   84696    2.1519629e+04   0.000000e+00   2.007453e+05     35s
   85970    2.1519631e+04   0.000000e+00   1.057392e+06     40s
   87244    2.1519633e+04   0.000000e+00   6.830798e+05     45s
   88518    2.1519635e+04   0.000000e+00   7.943839e+04     51s
   89792    2.1519636e+04   0.000000e+00   3.578126e+04     57s
   91066    2.1519637e+04   0.000000e+00   1.392174e+05     63s
   91703    2.1519638e+04   0.000000e+00   3.949134e+05     67s
   92977    2.1519640e+04   0.000000e+00   1.269595e+06     73s
   93614    2.1519641e+04   0.000000e+00   1.444700e+05     76s
   94888    2.1519642e+04   0.000000e+00   1.730878e+05     83s
   95525    2.1519642e+04   0.000000e+00   2.608227e+05     86s
   96799    2.1519643e+04   0.000000e+00   1.072547e+05     92s
   98073    2.1519644e+04   0.000000e+00   1.255771e+05     98s
   98710    2.1519645e+04   0.000000e+00   8.386902e+04    101s
   99984    2.1519646e+04   0.000000e+00   5.253583e+04    109s
  100621    2.1519646e+04   0.000000e+00   1.442480e+05    112s
  101258    2.1519646e+04   0.000000e+00   9.993517e+05    117s
  101895    2.1519647e+04   0.000000e+00   7.924815e+04    121s
  102532    2.1519647e+04   0.000000e+00   1.783158e+05    125s
  103806    2.1519648e+04   0.000000e+00   3.662608e+05    133s
  104443    2.1519648e+04   0.000000e+00   7.028903e+04    138s
  105080    2.1519649e+04   0.000000e+00   9.594169e+04    141s
  105717    2.1519649e+04   0.000000e+00   4.451853e+04    145s
  106991    2.1519650e+04   0.000000e+00   3.422626e+04    154s
  107628    2.1519650e+04   0.000000e+00   4.722201e+04    159s
  108265    2.1519651e+04   0.000000e+00   4.386082e+04    163s
  108902    2.1519651e+04   0.000000e+00   2.059789e+04    167s
  109539    2.1519651e+04   0.000000e+00   7.749472e+04    172s
  110176    2.1519651e+04   0.000000e+00   2.831009e+05    176s
  110813    2.1519652e+04   0.000000e+00   5.980023e+04    181s
  111450    2.1519652e+04   0.000000e+00   1.461198e+05    185s
  112724    2.1519652e+04   0.000000e+00   4.203399e+04    195s
  113361    2.1519652e+04   0.000000e+00   1.092159e+05    200s
  113998    2.1519653e+04   0.000000e+00   1.968211e+04    204s
  114635    2.1519653e+04   0.000000e+00   1.984360e+04    208s
  115272    2.1519653e+04   0.000000e+00   2.520565e+04    211s
  115909    2.1519653e+04   0.000000e+00   4.276612e+04    215s
  117183    2.1519654e+04   0.000000e+00   1.333073e+04    224s
  117820    2.1519654e+04   0.000000e+00   2.168010e+04    227s
  118457    2.1519654e+04   0.000000e+00   6.154540e+04    231s
  119094    2.1519654e+04   0.000000e+00   7.810462e+04    236s
  119731    2.1519654e+04   0.000000e+00   7.263906e+03    241s
  120368    2.1519655e+04   0.000000e+00   1.310857e+04    245s
  121642    2.1519655e+04   0.000000e+00   4.637817e+04    254s
  122279    2.1519655e+04   0.000000e+00   1.349400e+04    259s
  122916    2.1519655e+04   0.000000e+00   5.155396e+04    264s
  123553    2.1519655e+04   0.000000e+00   8.111930e+03    270s
  124190    2.1519655e+04   0.000000e+00   2.434270e+04    275s
  125464    2.1519655e+04   0.000000e+00   3.966286e+04    285s
  126101    2.1519655e+04   0.000000e+00   1.425248e+04    291s
  126738    2.1519655e+04   0.000000e+00   9.789466e+03    297s
  127375    2.1519655e+04   0.000000e+00   9.376480e+04    301s
  128012    2.1519656e+04   0.000000e+00   3.969190e+04    305s
  129286    2.1519656e+04   0.000000e+00   7.407731e+03    314s
  129923    2.1519656e+04   0.000000e+00   1.492150e+04    319s
  130560    2.1519656e+04   0.000000e+00   1.053291e+04    324s
  131197    2.1519656e+04   0.000000e+00   1.441272e+04    328s
  131834    2.1519656e+04   0.000000e+00   6.589732e+03    334s
  132471    2.1519656e+04   0.000000e+00   8.899732e+03    339s
  133108    2.1519656e+04   0.000000e+00   1.270280e+04    345s
  133745    2.1519656e+04   0.000000e+00   6.214001e+03    350s
  134382    2.1519656e+04   0.000000e+00   3.751828e+04    356s
  135019    2.1519657e+04   0.000000e+00   5.097870e+03    360s
  135656    2.1519657e+04   0.000000e+00   5.673635e+03    365s
  136293    2.1519657e+04   0.000000e+00   3.876045e+03    371s
  136930    2.1519657e+04   0.000000e+00   1.100937e+04    377s
  137567    2.1519657e+04   0.000000e+00   1.250529e+04    382s
  138204    2.1519657e+04   0.000000e+00   2.603595e+04    389s
  138841    2.1519657e+04   0.000000e+00   1.037015e+04    395s
  139478    2.1519657e+04   0.000000e+00   2.597223e+03    401s
  140115    2.1519657e+04   0.000000e+00   1.509015e+03    406s
  140752    2.1519657e+04   0.000000e+00   2.924472e+03    412s
  141389    2.1519657e+04   0.000000e+00   1.685409e+04    418s
  142026    2.1519657e+04   0.000000e+00   1.812918e+04    425s
  142663    2.1519657e+04   0.000000e+00   1.095665e+04    431s
  143300    2.1519657e+04   0.000000e+00   8.505363e+03    437s
  143937    2.1519657e+04   0.000000e+00   6.023232e+03    443s
  144574    2.1519657e+04   0.000000e+00   1.227491e+05    449s
  145211    2.1519657e+04   0.000000e+00   3.754159e+03    455s
  145848    2.1519657e+04   0.000000e+00   2.754114e+03    461s
  146485    2.1519657e+04   0.000000e+00   3.118675e+03    468s
  147122    2.1519657e+04   0.000000e+00   2.949516e+03    474s
  147759    2.1519657e+04   0.000000e+00   2.222446e+04    480s
  148396    2.1519657e+04   0.000000e+00   4.031292e+03    487s
  149033    2.1519657e+04   0.000000e+00   4.446914e+04    493s
  149670    2.1519657e+04   0.000000e+00   1.767634e+03    500s
  150307    2.1519657e+04   0.000000e+00   3.139322e+03    506s
  150944    2.1519657e+04   0.000000e+00   1.946987e+03    511s
  151581    2.1519657e+04   0.000000e+00   4.463404e+03    516s
  152218    2.1519658e+04   0.000000e+00   3.668761e+03    523s
  152855    2.1519658e+04   0.000000e+00   4.278467e+03    529s
  153492    2.1519658e+04   0.000000e+00   3.403847e+03    535s
  154129    2.1519658e+04   0.000000e+00   4.247337e+03    541s
  154766    2.1519658e+04   0.000000e+00   3.341076e+03    546s
  155403    2.1519658e+04   0.000000e+00   1.002968e+03    553s
  156040    2.1519658e+04   0.000000e+00   2.138556e+03    559s
  156677    2.1519658e+04   0.000000e+00   1.288399e+03    565s
  157314    2.1519658e+04   0.000000e+00   2.232271e+03    571s
  157951    2.1519658e+04   0.000000e+00   1.152697e+03    577s
  158588    2.1519658e+04   0.000000e+00   2.713463e+03    582s
  159225    2.1519658e+04   0.000000e+00   2.801468e+02    588s
  159862    2.1519658e+04   0.000000e+00   1.010606e+03    593s
  160499    2.1519658e+04   0.000000e+00   4.783728e+02    598s
  161136    2.1519658e+04   0.000000e+00   1.802275e+03    603s
  161773    2.1519658e+04   0.000000e+00   1.727071e+02    610s
  162410    2.1519658e+04   0.000000e+00   6.947081e+02    615s
  163047    2.1519658e+04   0.000000e+00   4.450738e+02    620s
  163684    2.1519658e+04   0.000000e+00   2.028235e+03    626s
  164321    2.1519658e+04   0.000000e+00   1.345532e+03    631s
  164958    2.1519658e+04   0.000000e+00   3.492963e+02    637s
  165595    2.1519658e+04   0.000000e+00   1.494011e+03    642s
  166232    2.1519658e+04   0.000000e+00   4.286672e+02    647s
  166869    2.1519658e+04   0.000000e+00   2.729680e+03    652s
  167506    2.1519658e+04   0.000000e+00   1.815097e+02    657s
  168143    2.1519658e+04   0.000000e+00   8.235937e+01    661s
  169417    2.1519658e+04   0.000000e+00   1.904920e+02    668s
  170054    2.1519658e+04   0.000000e+00   7.458121e+01    672s
  170691    2.1519658e+04   0.000000e+00   1.155766e+02    676s
  171328    2.1519658e+04   0.000000e+00   1.032669e+01    681s
  171965    2.1519658e+04   0.000000e+00   2.961280e+01    685s
  173239    2.1519658e+04   0.000000e+00   1.421318e+00    693s
  173876    2.1519658e+04   0.000000e+00   5.051806e-01    698s
  174333    2.1519228e+04   0.000000e+00   0.000000e+00    701s
Extra simplex iterations after uncrush: 115213

Solved in 174333 iterations and 701.36 seconds (901.31 work units)
Optimal objective  2.151922844e+04
